NAME : XML100_1272_07
DIMENSION : 101
NB_CLUSTERS : 3
CLUSTERING_ALG : KMedoids
CLUSTERING_PARAMS : k(2)
CLUSTERS
1 0
2 2 3 6 7 8 12 21 23 24 25 36 38 40 41 42 44 50 54 67 70 73 74 79 85 87 91 92 97 100
3 1 4 5 9 10 11 13 14 15 16 17 18 19 20 22 26 27 28 29 30 31 32 33 34 35 37 39 43 45 46 47 48 49 51 52 53 55 56 57 58 59 60 61 62 63 64 65 66 68 69 71 72 75 76 77 78 80 81 82 83 84 86 88 89 90 93 94 95 96 98 99
EOF